% File represents an instance of a Composite Structure problem to be solved by a CP framework
% Created on 2025-03-26 10:42:12.076
T = 50;
n = 36;
m = 60;
edges = [(1, 2),
(7, 8),
(13, 14),
(19, 20),
(25, 26),
(31, 32),
(2, 3),
(8, 9),
(14, 15),
(20, 21),
(27, 26),
(33, 32),
(3, 4),
(9, 10),
(15, 16),
(21, 22),
(27, 28),
(33, 34),
(4, 5),
(10, 11),
(16, 17),
(23, 22),
(28, 29),
(34, 35),
(5, 6),
(11, 12),
(18, 17),
(24, 23),
(30, 29),
(35, 36),
(1, 7),
(7, 13),
(13, 19),
(19, 25),
(25, 31),
(2, 8),
(8, 14),
(14, 20),
(20, 26),
(26, 32),
(3, 9),
(9, 15),
(15, 21),
(27, 21),
(33, 27),
(4, 10),
(10, 16),
(16, 22),
(28, 22),
(34, 28),
(5, 11),
(11, 17),
(23, 17),
(23, 29),
(35, 29),
(6, 12),
(18, 12),
(24, 18),
(24, 30),
(30, 36)];
counts = [|6, 18, 6, 20,
|6, 14, 6, 18,
|6, 14, 6, 12,
|6, 12, 6, 8,
|6, 12, 6, 2,
|6, 8, 6, 2,
|6, 12, 6, 20,
|6, 10, 6, 16,
|6, 10, 6, 10,
|6, 8, 6, 6,
|6, 6, 6, 2,
|4, 6, 4, 2,
|6, 12, 6, 14,
|4, 10, 4, 14,
|4, 8, 4, 10,
|4, 6, 4, 6,
|4, 4, 4, 2,
|4, 10, 4, 2,
|4, 12, 4, 12,
|4, 6, 4, 12,
|4, 6, 4, 6,
|2, 6, 2, 4,
|4, 6, 4, 6,
|4, 10, 4, 6,
|4, 10, 4, 10,
|4, 6, 4, 8,
|4, 6, 4, 10,
|4, 6, 4, 4,
|2, 6, 2, 4,
|2, 8, 2, 6,
|4, 10, 4, 8,
|4, 6, 4, 6,
|4, 6, 4, 12,
|4, 6, 4, 8,
|2, 6, 2, 8,
|2, 6, 2, 2|];
